p tdp 56 108
5 14
18 50
44 56
27 43
9 20
16 38
31 34
48 50
13 15
4 11
28 49
20 53
46 47
18 22
12 51
31 32
36 41
10 45
11 19
23 42
3 54
52 55
5 8
39 40
18 30
8 40
1 17
6 56
26 35
25 46
2 7
25 29
21 24
16 19
3 32
17 42
49 50
2 53
13 40
8 36
21 26
33 55
12 44
35 38
15 46
4 43
20 27
26 37
28 35
15 42
31 52
12 45
10 52
4 54
14 32
27 55
7 24
44 48
27 52
12 54
46 53
13 37
1 42
9 22
5 19
18 41
23 39
9 40
11 39
44 51
16 56
14 18
12 23
16 48
27 47
14 34
33 51
2 48
48 55
5 51
16 41
19 54
7 27
28 29
20 45
44 52
2 18
12 53
15 44
6 20
16 39
11 29
27 48
22 51
3 8
18 24
10 54
25 34
18 33
20 22
30 33
8 48
5 31
43 54
33 50
10 32
9 47
10 11
